20
2 0 6
3 0 4
3 1 8
3 2 3
4 3 3
5 2 7
5 3 5
5 4 2
6 0 9
6 1 5
6 2 8
6 4 6
7 1 9
7 2 5
7 3 5
8 0 6
8 1 9
8 2 1
8 7 2
9 2 10
9 4 3
9 5 3
9 6 5
9 8 10
10 0 9
10 1 9
10 2 6
10 3 8
10 4 7
10 5 2
10 7 4
10 8 8
11 1 4
11 4 1
11 5 6
11 6 2
11 8 8
12 2 9
12 7 1
12 9 4
12 11 1
13 0 7
13 1 7
13 3 7
13 5 7
13 7 4
13 9 8
13 10 10
13 11 2
14 6 6
14 8 10
14 11 3
14 12 9
14 13 4
15 0 8
15 1 10
15 3 7
15 4 1
15 5 10
15 7 7
15 9 3
15 11 2
15 12 9
15 13 6
16 2 1
16 3 10
16 7 2
16 9 10
16 15 10
17 4 8
17 8 9
17 12 3
17 13 2
17 16 6
18 0 6
18 1 1
18 3 4
18 4 3
18 5 3
18 10 2
18 11 2
18 12 4
19 0 7
19 1 1
19 2 8
19 4 6
19 5 5
19 7 9
19 8 8
19 9 10
19 10 5
19 11 7
19 12 5
19 15 8
19 16 8
19 18 9
